c Sudoku solution
p cnf 729 0
117 0
124 0
165 0
215 0
231 0
254 0
279 0
296 0
329 0
471 0
544 0
562 0
576 0
588 0
638 0
647 0
684 0
692 0
732 0
793 0
846 0
852 0
877 0
919 0
928 0
318 0
222 0
412 0
434 0
539 0
937 0
986 0
972 0
835 0
963 0
994 0
374 0
955 0
941 0
445 0
182 0
342 0
159 0
191 0
178 0
136 0
333 0
143 0
248 0
267 0
283 0
749 0
757 0
458 0
669 0
466 0
356 0
361 0
673 0
595 0
423 0
511 0
616 0
625 0
527 0
553 0
651 0
813 0
821 0
726 0
714 0
781 0
889 0
775 0
898 0
768 0
864 0
385 0
397 0
487 0
499 0
